65
1 0 1
3 0 1
3 1 1
3 2 1
4 0 1
4 1 1
4 2 1
5 0 1
5 2 1
6 0 1
6 1 1
6 2 1
6 3 1
6 4 1
7 1 1
7 3 1
7 4 1
8 1 1
8 3 1
8 6 1
9 5 1
9 7 1
10 0 1
10 1 1
10 2 1
10 4 1
10 5 1
10 6 1
11 0 1
11 1 1
11 3 1
11 4 1
11 5 1
11 6 1
11 9 1
12 1 1
12 6 1
12 7 1
12 8 1
12 10 1
12 11 1
13 0 1
13 1 1
13 3 1
13 4 1
13 6 1
13 7 1
13 8 1
13 10 1
13 11 1
14 0 1
14 1 1
14 3 1
14 8 1
14 9 1
14 10 1
14 11 1
14 13 1
15 1 1
15 2 1
15 4 1
15 5 1
15 10 1
15 12 1
15 13 1
16 0 1
16 1 1
16 3 1
16 4 1
16 5 1
16 7 1
16 10 1
16 11 1
16 15 1
17 0 1
17 1 1
17 2 1
17 4 1
17 5 1
17 6 1
17 7 1
17 10 1
17 12 1
17 13 1
17 14 1
17 15 1
18 0 1
18 5 1
18 7 1
18 9 1
18 11 1
18 12 1
18 13 1
18 14 1
18 15 1
18 17 1
19 2 1
19 6 1
19 7 1
19 8 1
19 9 1
19 11 1
19 14 1
19 18 1
20 1 1
20 2 1
20 3 1
20 4 1
20 7 1
20 8 1
20 9 1
20 12 1
20 14 1
20 15 1
21 1 1
21 2 1
21 4 1
21 6 1
21 7 1
21 9 1
21 10 1
21 13 1
21 14 1
21 15 1
21 17 1
21 20 1
22 5 1
22 6 1
22 10 1
22 12 1
22 13 1
22 14 1
22 15 1
22 17 1
22 18 1
22 21 1
23 0 1
23 6 1
23 7 1
23 8 1
23 10 1
23 11 1
23 15 1
23 17 1
23 18 1
23 20 1
23 22 1
24 0 1
24 3 1
24 4 1
24 6 1
24 8 1
24 9 1
24 10 1
24 11 1
24 17 1
24 18 1
24 19 1
24 20 1
24 22 1
24 23 1
25 0 1
25 1 1
25 3 1
25 4 1
25 5 1
25 7 1
25 8 1
25 9 1
25 12 1
25 14 1
25 15 1
25 16 1
25 19 1
25 20 1
25 21 1
25 23 1
25 24 1
26 2 1
26 3 1
26 4 1
26 5 1
26 7 1
26 8 1
26 9 1
26 13 1
26 14 1
26 16 1
26 17 1
26 19 1
26 21 1
26 22 1
26 23 1
26 24 1
26 25 1
27 1 1
27 2 1
27 3 1
27 4 1
27 5 1
27 7 1
27 8 1
27 9 1
27 10 1
27 11 1
27 12 1
27 14 1
27 15 1
27 18 1
28 2 1
28 4 1
28 5 1
28 6 1
28 7 1
28 8 1
28 9 1
28 14 1
28 15 1
28 18 1
28 20 1
28 21 1
28 22 1
28 23 1
28 27 1
29 1 1
29 2 1
29 5 1
29 6 1
29 7 1
29 8 1
29 12 1
29 13 1
29 18 1
29 20 1
29 21 1
29 22 1
29 23 1
29 25 1
29 27 1
29 28 1
30 1 1
30 4 1
30 8 1
30 9 1
30 15 1
30 17 1
30 20 1
30 23 1
30 25 1
31 0 1
31 3 1
31 5 1
31 8 1
31 10 1
31 11 1
31 12 1
31 14 1
31 16 1
31 18 1
31 19 1
31 23 1
31 24 1
31 26 1
31 27 1
31 28 1
31 30 1
32 0 1
32 1 1
32 3 1
32 6 1
32 7 1
32 11 1
32 13 1
32 14 1
32 15 1
32 19 1
32 23 1
32 25 1
32 26 1
32 27 1
32 28 1
32 30 1
33 0 1
33 1 1
33 2 1
33 3 1
33 6 1
33 7 1
33 8 1
33 9 1
33 10 1
33 13 1
33 14 1
33 15 1
33 16 1
33 17 1
33 19 1
33 25 1
33 26 1
33 27 1
33 28 1
33 29 1
33 30 1
34 0 1
34 4 1
34 6 1
34 7 1
34 8 1
34 10 1
34 13 1
34 15 1
34 18 1
34 20 1
34 26 1
34 28 1
34 30 1
34 31 1
34 32 1
35 3 1
35 4 1
35 7 1
35 11 1
35 12 1
35 14 1
35 17 1
35 18 1
35 20 1
35 21 1
35 22 1
35 23 1
35 25 1
35 29 1
35 31 1
35 33 1
35 34 1
36 0 1
36 3 1
36 7 1
36 8 1
36 9 1
36 11 1
36 13 1
36 15 1
36 16 1
36 18 1
36 19 1
36 21 1
36 22 1
36 24 1
36 25 1
36 27 1
36 29 1
36 31 1
36 32 1
36 33 1
36 35 1
37 1 1
37 2 1
37 3 1
37 5 1
37 6 1
37 7 1
37 8 1
37 9 1
37 12 1
37 13 1
37 15 1
37 19 1
37 20 1
37 22 1
37 23 1
37 26 1
37 27 1
37 28 1
37 29 1
38 2 1
38 5 1
38 8 1
38 9 1
38 10 1
38 11 1
38 12 1
38 13 1
38 16 1
38 24 1
38 26 1
38 27 1
38 28 1
38 29 1
38 30 1
38 31 1
38 33 1
38 34 1
38 35 1
38 36 1
38 37 1
39 2 1
39 3 1
39 4 1
39 5 1
39 9 1
39 10 1
39 12 1
39 14 1
39 15 1
39 18 1
39 19 1
39 21 1
39 24 1
39 26 1
39 27 1
39 29 1
39 30 1
39 33 1
39 34 1
39 35 1
40 1 1
40 2 1
40 3 1
40 4 1
40 5 1
40 9 1
40 11 1
40 12 1
40 15 1
40 17 1
40 20 1
40 21 1
40 22 1
40 23 1
40 28 1
40 30 1
40 34 1
40 35 1
40 37 1
41 0 1
41 6 1
41 7 1
41 10 1
41 11 1
41 13 1
41 15 1
41 16 1
41 17 1
41 18 1
41 20 1
41 21 1
41 23 1
41 26 1
41 30 1
41 31 1
41 35 1
41 36 1
41 37 1
42 1 1
42 3 1
42 5 1
42 6 1
42 7 1
42 8 1
42 10 1
42 11 1
42 12 1
42 15 1
42 19 1
42 20 1
42 24 1
42 26 1
42 28 1
42 29 1
42 30 1
42 33 1
42 37 1
42 39 1
42 40 1
43 0 1
43 2 1
43 3 1
43 4 1
43 5 1
43 7 1
43 9 1
43 10 1
43 11 1
43 14 1
43 15 1
43 19 1
43 20 1
43 24 1
43 26 1
43 28 1
43 30 1
43 31 1
43 33 1
43 35 1
43 36 1
43 37 1
43 40 1
44 0 1
44 6 1
44 7 1
44 8 1
44 9 1
44 14 1
44 15 1
44 19 1
44 20 1
44 21 1
44 25 1
44 26 1
44 30 1
44 36 1
44 37 1
44 41 1
45 1 1
45 2 1
45 3 1
45 4 1
45 9 1
45 11 1
45 13 1
45 17 1
45 18 1
45 20 1
45 21 1
45 23 1
45 24 1
45 25 1
45 26 1
45 29 1
45 30 1
45 34 1
45 35 1
45 40 1
45 43 1
45 44 1
46 2 1
46 3 1
46 6 1
46 7 1
46 11 1
46 15 1
46 18 1
46 20 1
46 21 1
46 22 1
46 23 1
46 26 1
46 28 1
46 29 1
46 31 1
46 33 1
46 34 1
46 39 1
46 40 1
46 44 1
46 45 1
47 0 1
47 3 1
47 7 1
47 13 1
47 15 1
47 16 1
47 17 1
47 26 1
47 27 1
47 30 1
47 36 1
47 37 1
47 38 1
47 42 1
47 43 1
47 44 1
47 46 1
48 1 1
48 4 1
48 5 1
48 6 1
48 8 1
48 9 1
48 14 1
48 15 1
48 16 1
48 17 1
48 19 1
48 20 1
48 21 1
48 22 1
48 25 1
48 31 1
48 32 1
48 36 1
48 39 1
48 40 1
48 43 1
48 44 1
48 45 1
48 47 1
49 1 1
49 3 1
49 4 1
49 7 1
49 10 1
49 11 1
49 13 1
49 14 1
49 17 1
49 18 1
49 20 1
49 23 1
49 24 1
49 25 1
49 27 1
49 28 1
49 34 1
49 35 1
49 38 1
49 39 1
49 41 1
49 42 1
49 46 1
49 47 1
49 48 1
50 1 1
50 2 1
50 6 1
50 8 1
50 9 1
50 18 1
50 19 1
50 20 1
50 21 1
50 24 1
50 27 1
50 30 1
50 31 1
50 34 1
50 35 1
50 37 1
50 38 1
50 39 1
50 41 1
50 42 1
50 43 1
50 45 1
51 0 1
51 1 1
51 3 1
51 4 1
51 9 1
51 11 1
51 13 1
51 14 1
51 17 1
51 18 1
51 19 1
51 20 1
51 23 1
51 25 1
51 27 1
51 28 1
51 32 1
51 33 1
51 34 1
51 35 1
51 36 1
51 39 1
51 41 1
51 42 1
51 43 1
51 44 1
51 45 1
51 46 1
51 47 1
51 48 1
51 49 1
52 0 1
52 1 1
52 5 1
52 9 1
52 12 1
52 14 1
52 15 1
52 16 1
52 18 1
52 20 1
52 22 1
52 27 1
52 32 1
52 33 1
52 36 1
52 38 1
52 40 1
52 42 1
52 43 1
52 47 1
53 6 1
53 8 1
53 9 1
53 12 1
53 13 1
53 15 1
53 16 1
53 19 1
53 21 1
53 26 1
53 27 1
53 30 1
53 32 1
53 33 1
53 34 1
53 39 1
53 43 1
53 45 1
53 48 1
53 49 1
53 50 1
54 0 1
54 1 1
54 2 1
54 3 1
54 5 1
54 6 1
54 7 1
54 16 1
54 17 1
54 19 1
54 22 1
54 23 1
54 25 1
54 27 1
54 29 1
54 30 1
54 32 1
54 35 1
54 36 1
54 37 1
54 39 1
54 40 1
54 41 1
54 42 1
54 43 1
54 45 1
54 47 1
54 48 1
54 51 1
55 2 1
55 4 1
55 6 1
55 9 1
55 11 1
55 14 1
55 17 1
55 20 1
55 24 1
55 28 1
55 29 1
55 30 1
55 32 1
55 34 1
55 37 1
55 41 1
55 42 1
55 44 1
55 48 1
55 50 1
55 53 1
55 54 1
56 2 1
56 5 1
56 6 1
56 7 1
56 11 1
56 12 1
56 14 1
56 15 1
56 16 1
56 18 1
56 23 1
56 25 1
56 27 1
56 29 1
56 30 1
56 33 1
56 35 1
56 37 1
56 38 1
56 39 1
56 49 1
56 50 1
56 51 1
56 52 1
56 53 1
56 55 1
57 0 1
57 1 1
57 4 1
57 7 1
57 8 1
57 9 1
57 12 1
57 14 1
57 18 1
57 19 1
57 21 1
57 22 1
57 24 1
57 25 1
57 28 1
57 29 1
57 30 1
57 31 1
57 34 1
57 35 1
57 37 1
57 41 1
57 48 1
57 50 1
57 52 1
57 54 1
58 1 1
58 4 1
58 7 1
58 8 1
58 13 1
58 15 1
58 16 1
58 18 1
58 20 1
58 21 1
58 23 1
58 27 1
58 28 1
58 29 1
58 30 1
58 32 1
58 33 1
58 34 1
58 38 1
58 40 1
58 41 1
58 44 1
58 46 1
58 47 1
58 49 1
58 51 1
58 53 1
58 55 1
58 57 1
59 1 1
59 4 1
59 5 1
59 7 1
59 8 1
59 10 1
59 13 1
59 14 1
59 15 1
59 16 1
59 17 1
59 19 1
59 21 1
59 23 1
59 25 1
59 26 1
59 30 1
59 31 1
59 33 1
59 34 1
59 35 1
59 39 1
59 42 1
59 45 1
59 46 1
59 47 1
59 53 1
59 54 1
59 55 1
59 58 1
60 0 1
60 1 1
60 2 1
60 3 1
60 5 1
60 8 1
60 9 1
60 10 1
60 11 1
60 16 1
60 17 1
60 19 1
60 21 1
60 23 1
60 24 1
60 25 1
60 27 1
60 28 1
60 29 1
60 32 1
60 34 1
60 35 1
60 37 1
60 39 1
60 40 1
60 47 1
60 49 1
60 50 1
60 51 1
60 52 1
60 53 1
60 55 1
60 58 1
60 59 1
61 1 1
61 3 1
61 5 1
61 6 1
61 7 1
61 8 1
61 9 1
61 10 1
61 12 1
61 15 1
61 16 1
61 17 1
61 19 1
61 23 1
61 24 1
61 28 1
61 29 1
61 30 1
61 33 1
61 34 1
61 36 1
61 37 1
61 39 1
61 41 1
61 43 1
61 46 1
61 48 1
61 54 1
61 56 1
61 59 1
61 60 1
62 2 1
62 3 1
62 4 1
62 5 1
62 9 1
62 10 1
62 15 1
62 17 1
62 20 1
62 23 1
62 28 1
62 29 1
62 30 1
62 32 1
62 34 1
62 37 1
62 38 1
62 39 1
62 41 1
62 44 1
62 45 1
62 46 1
62 47 1
62 49 1
62 50 1
62 54 1
62 55 1
62 59 1
62 61 1
63 0 1
63 2 1
63 4 1
63 6 1
63 10 1
63 11 1
63 12 1
63 13 1
63 16 1
63 18 1
63 19 1
63 20 1
63 22 1
63 23 1
63 25 1
63 26 1
63 27 1
63 28 1
63 29 1
63 31 1
63 34 1
63 35 1
63 37 1
63 38 1
63 39 1
63 41 1
63 42 1
63 48 1
63 49 1
63 50 1
63 51 1
63 52 1
63 53 1
63 54 1
63 61 1
63 62 1
64 1 1
64 3 1
64 4 1
64 9 1
64 10 1
64 11 1
64 14 1
64 15 1
64 17 1
64 18 1
64 19 1
64 20 1
64 21 1
64 24 1
64 27 1
64 28 1
64 32 1
64 35 1
64 42 1
64 46 1
64 48 1
64 49 1
64 51 1
64 52 1
64 54 1
64 55 1
64 56 1
64 60 1
64 62 1
64 63 1
